c turning on binary mode checking
c parsing input formula with 259840 variables and 1039934 clauses
c finished parsing, read 3110041 bytes from proof file
c detected empty clause; start verification via backward checking
c 9309 of 1039934 clauses in core                            
c 3430 of 122319 lemmas in core using 195536 resolution steps
c 0 RAT lemmas in core; 1413 redundant literals in core lemmas
s VERIFIED
c verification time: 1.703 seconds
